c This is QMaxSAT 2017 based on 14.07
c This is Glucose 3.0
c This is MiniSat 2.2.0
c WARNING: for repeatability, setting FPU to use double precision
c card = mrwto, comp = 0, pmodel = 0, narr = 12, mct = 52, verb = 0
cr firstCPXsol 0 0 0
c top = 1525567
c |  Number of variables:    162498                                           |
c |  Number of clauses:      178792968                                        |
c |  Weight of hard clauses: 1525567                                          |
c |  Number of soft clauses: 31824                                            |
c |  Number of unit soft clauses: 31824                                       |
c |  Maximum Cardinality (by unit): 18306792     (18306792    )               |
c last restart ## conflicts  :  0 3232 
o 5052 | cpuTime 16.7349 s
c Sum of weights = 1525566
c A number of soft clauses remained = 2652
c MRWTO encoding for Pseudo-Boolean Constraints
c sizeMax=5052
c No.0 Divisor=9	generated by pow1
c No.1 Divisor=9	generated by pow1
c No.2 Divisor=9	generated by pow1
c No.3 Divisor=9	generated by pow1
c p0= 9	p1= 9	p2= 9	p3= 9	
c number of digits = 5
c linkingVar[0].size = 9, linkingVar[1].size = 9, linkingVar[2].size = 9, linkingVar[3].size = 7, linkingVar[4].size = 1, 
c Pseudo-Boolean Constraints: 67600 variables and 545819 clauses
c Sum of weights = 1525566
c A number of soft clauses remained = 2652
c MRWTO encoding for Pseudo-Boolean Constraints
c sizeMax=5052
c No.0 Divisor=9	generated by pow1
c No.1 Divisor=9	generated by pow1
c No.2 Divisor=9	generated by pow1
c No.3 Divisor=9	generated by pow1
c p0= 9	p1= 9	p2= 9	p3= 9	
c number of digits = 5
c linkingVar[0].size = 9, linkingVar[1].size = 9, linkingVar[2].size = 9, linkingVar[3].size = 7, linkingVar[4].size = 1, 
c Pseudo-Boolean Constraints: 67600 variables and 545819 clauses
c Sum of weights = 1525566
c A number of soft clauses remained = 2652
c MRWTO encoding for Pseudo-Boolean Constraints
c sizeMax=5052
c No.0 Divisor=9	generated by pow1
c No.1 Divisor=9	generated by pow1
c No.2 Divisor=9	generated by pow1
c No.3 Divisor=9	generated by pow1
c p0= 9	p1= 9	p2= 9	p3= 9	
c number of digits = 5
c linkingVar[0].size = 9, linkingVar[1].size = 9, linkingVar[2].size = 9, linkingVar[3].size = 7, linkingVar[4].size = 1, 
c Pseudo-Boolean Constraints: 67600 variables and 545819 clauses
c Sum of weights = 1525566
c A number of soft clauses remained = 2652
c MRWTO encoding for Pseudo-Boolean Constraints
c sizeMax=5052
c No.0 Divisor=9	generated by pow1
c No.1 Divisor=9	generated by pow1
c No.2 Divisor=9	generated by pow1
c No.3 Divisor=9	generated by pow1
c p0= 9	p1= 9	p2= 9	p3= 9	
c number of digits = 5
c linkingVar[0].size = 9, linkingVar[1].size = 9, linkingVar[2].size = 9, linkingVar[3].size = 7, linkingVar[4].size = 1, 
c Pseudo-Boolean Constraints: 67600 variables and 545819 clauses
c Sum of weights = 1525566
c A number of soft clauses remained = 2652
c MRWTO encoding for Pseudo-Boolean Constraints
c sizeMax=5052
c No.0 Divisor=9	generated by pow1
c No.1 Divisor=9	generated by pow1
c No.2 Divisor=9	generated by pow1
c No.3 Divisor=9	generated by pow1
c p0= 9	p1= 9	p2= 9	p3= 9	
c number of digits = 5
c linkingVar[0].size = 9, linkingVar[1].size = 9, linkingVar[2].size = 9, linkingVar[3].size = 7, linkingVar[4].size = 1, 
c Pseudo-Boolean Constraints: 67600 variables and 545819 clauses
c Sum of weights = 1525566
c A number of soft clauses remained = 2652
c MRWTO encoding for Pseudo-Boolean Constraints
c sizeMax=5052
c No.0 Divisor=9	generated by pow1
c No.1 Divisor=9	generated by pow1
c No.2 Divisor=9	generated by pow1
c No.3 Divisor=9	generated by pow1
c p0= 9	p1= 9	p2= 9	p3= 9	
c number of digits = 5
c linkingVar[0].size = 9, linkingVar[1].size = 9, linkingVar[2].size = 9, linkingVar[3].size = 7, linkingVar[4].size = 1, 
c Pseudo-Boolean Constraints: 67600 variables and 545819 clauses
c Sum of weights = 1525566
c A number of soft clauses remained = 2652
c MRWTO encoding for Pseudo-Boolean Constraints
c sizeMax=5052
c No.0 Divisor=9	generated by pow1
c No.1 Divisor=9	generated by pow1
c No.2 Divisor=9	generated by pow1
c No.3 Divisor=9	generated by pow1
c p0= 9	p1= 9	p2= 9	p3= 9	
c number of digits = 5
c linkingVar[0].size = 9, linkingVar[1].size = 9, linkingVar[2].size = 9, linkingVar[3].size = 7, linkingVar[4].size = 1, 
c Pseudo-Boolean Constraints: 67600 variables and 545819 clauses
c Sum of weights = 1525566
c A number of soft clauses remained = 2652
c MRWTO encoding for Pseudo-Boolean Constraints
c sizeMax=5052
c No.0 Divisor=9	generated by pow1
c No.1 Divisor=9	generated by pow1
c No.2 Divisor=9	generated by pow1
c No.3 Divisor=9	generated by pow1
c p0= 9	p1= 9	p2= 9	p3= 9	
c number of digits = 5
c linkingVar[0].size = 9, linkingVar[1].size = 9, linkingVar[2].size = 9, linkingVar[3].size = 7, linkingVar[4].size = 1, 
c Pseudo-Boolean Constraints: 67600 variables and 545819 clauses
c Sum of weights = 1525566
c A number of soft clauses remained = 2652
c MRWTO encoding for Pseudo-Boolean Constraints
c sizeMax=5052
c No.0 Divisor=9	generated by pow1
c No.1 Divisor=9	generated by pow1
c No.2 Divisor=9	generated by pow1
c No.3 Divisor=9	generated by pow1
c p0= 9	p1= 9	p2= 9	p3= 9	
c number of digits = 5
c linkingVar[0].size = 9, linkingVar[1].size = 9, linkingVar[2].size = 9, linkingVar[3].size = 7, linkingVar[4].size = 1, 
c Pseudo-Boolean Constraints: 67600 variables and 545819 clauses
c Sum of weights = 1525566
c A number of soft clauses remained = 2652
c MRWTO encoding for Pseudo-Boolean Constraints
c sizeMax=5052
c No.0 Divisor=9	generated by pow1
c No.1 Divisor=9	generated by pow1
c No.2 Divisor=9	generated by pow1
c No.3 Divisor=9	generated by pow1
c p0= 9	p1= 9	p2= 9	p3= 9	
c number of digits = 5
c linkingVar[0].size = 9, linkingVar[1].size = 9, linkingVar[2].size = 9, linkingVar[3].size = 7, linkingVar[4].size = 1, 
c Pseudo-Boolean Constraints: 67600 variables and 545819 clauses
c Sum of weights = 1525566
c A number of soft clauses remained = 2652
c MRWTO encoding for Pseudo-Boolean Constraints
c sizeMax=5052
c No.0 Divisor=9	generated by pow1
c No.1 Divisor=9	generated by pow1
c No.2 Divisor=9	generated by pow1
c No.3 Divisor=9	generated by pow1
c p0= 9	p1= 9	p2= 9	p3= 9	
c number of digits = 5
c linkingVar[0].size = 9, linkingVar[1].size = 9, linkingVar[2].size = 9, linkingVar[3].size = 7, linkingVar[4].size = 1, 
c Pseudo-Boolean Constraints: 67600 variables and 545819 clauses
c Sum of weights = 1525566
c A number of soft clauses remained = 2652
c MRWTO encoding for Pseudo-Boolean Constraints
c sizeMax=5052
c No.0 Divisor=9	generated by pow1
c No.1 Divisor=9	generated by pow1
c No.2 Divisor=9	generated by pow1
c No.3 Divisor=9	generated by pow1
c p0= 9	p1= 9	p2= 9	p3= 9	
c number of digits = 5
c linkingVar[0].size = 9, linkingVar[1].size = 9, linkingVar[2].size = 9, linkingVar[3].size = 7, linkingVar[4].size = 1, 
c Pseudo-Boolean Constraints: 67600 variables and 545819 clauses
c last restart ## conflicts  :  4 70221 
o 4881 | cpuTime 19.9022 s
c last restart ## conflicts  :  968 27253 
o 4710 | cpuTime 117.461 s
c last restart ## conflicts  :  1013 60230 
o 4359 | cpuTime 1183.87 s
c last restart ## conflicts  :  120 50126 
o 3828 | cpuTime 1539.45 s
s UNKNOWN
c Search is stopped by a limit (maybe time-limit)
cr positiVarArr: [ | 19@1(1->19) | 242@1(5->34) | 599@1(12->27) | 767@1(15->39) | 792@1(16->12) | 952@1(19->16) | 1244@1(24->48) | 1324@1(26->24) | 1380@1(27->28) | 1430@1(28->26) | 1751@1(34->35) | 1783@1(35->15) | 1977@1(39->1) | 2449@1(48->5) | 2742@2(1->38) | 2763@2(2->7) | 3062@2(7->46) | 4265@2(31->1) | 4630@2(38->2) | 5075@2(46->31) | 5444@3(1->36) | 6107@3(14->23) | 6553@3(23->1) | 7242@3(36->14) | 8164@4(1->52) | 10245@4(42->1) | 10806@4(52->42) | 10866@5(1->50) | 11249@5(9->17) | 11685@5(17->37) | 12481@5(33->1) | 12721@5(37->33) | 13113@5(45->9) | 13409@5(50->45) | 13538@6(1->18) | 14453@6(18->49) | 16017@6(49->1) | 16249@7(1->25) | 16368@7(3->40) | 17213@7(20->1) | 17475@7(25->3) | 18272@7(40->20) | 18934@8(1->6) | 19085@8(4->1) | 19201@8(6->13) | 19603@8(13->51) | 21532@8(51->4) | 21643@9(1->11) | 22196@9(11->44) | 22725@9(22->1) | 23890@9(44->22) | 24346@10(1->10) | 24805@10(10->1) | 27072@11(1->32) | 27445@11(8->41) | 28549@11(30->1) | 28699@11(32->47) | 29163@11(41->43) | 29254@11(43->30) | 29440@11(47->8) | 29765@12(1->21) | 30813@12(21->29) | 31201@12(29->1) | ]
cr the 1-th chain: [ 1->19->16->12->27->28->26->24->48->5->34->35->15->39->1 ] (#non-depot=13) {#cumul.=14}
cr the 2-th chain: [ 1->38->2->7->46->31->1 ] (#non-depot=5) {#cumul.=19}
cr the 3-th chain: [ 1->36->14->23->1 ] (#non-depot=3) {#cumul.=22}
cr the 4-th chain: [ 1->52->42->1 ] (#non-depot=2) {#cumul.=24}
cr the 5-th chain: [ 1->50->45->9->17->37->33->1 ] (#non-depot=6) {#cumul.=30}
cr the 6-th chain: [ 1->18->49->1 ] (#non-depot=2) {#cumul.=32}
cr the 7-th chain: [ 1->25->3->40->20->1 ] (#non-depot=4) {#cumul.=36}
cr the 8-th chain: [ 1->6->13->51->4->1 ] (#non-depot=4) {#cumul.=40}
cr the 9-th chain: [ 1->11->44->22->1 ] (#non-depot=3) {#cumul.=43}
cr the 10-th chain: [ 1->10->1 ] (#non-depot=1) {#cumul.=44}
cr the 11-th chain: [ 1->32->47->8->41->43->30->1 ] (#non-depot=6) {#cumul.=50}
cr the 12-th chain: [ 1->21->29->1 ] (#non-depot=2) {#cumul.=52}
c Latest Answer = 0 by 5 loops
c restarts              : 7792
c conflicts             : 2237975        (625 /sec)
c decisions             : 118724966      (0.00 % random) (33145 /sec)
c propagations          : 17506390603    (4887292 /sec)
c conflict literals     : 3211558283     (16.91 % deleted)
c Memory used           : 14961.00 MB
c CPU time              : 3582.02 s
